db/data/5527476778005680135647405183151674.z3.out
-------------------
2500.225865817
